1 - 0
2 - 0
3 - 0
4 - 0
5 - 0
6 - 0
7 - 0
8 - 0
9 - 0
10 - 0
11 - 0
12 - 0
13 - 2
14 - 22
15 - 270
16 - 1925
17 - 7001
18 - 15833
19 - 25446
20 - 27476
21 - 19442
22 - 9534
23 - 2918
24 - 653
25 - 57
26 - 1
27 - 0
28 - 0
29 - 0
30 - 0
31 - 0
32 - 0
33 - 0
34 - 0
35 - 0
36 - 0
37 - 0
38 - 0
39 - 0
40 - 0
41 - 0
42 - 0
43 - 0
44 - 0
45 - 0
46 - 0
47 - 0
48 - 0
49 - 0
50 - 0

0.1 - 10911
0.2 - 11489
0.3 - 11370
0.4 - 11339
0.5 - 11225
0.6 - 10961
0.7 - 10880
0.8 - 10990
0.9 - 10860
1 - 10555
